coords = array2d(1..70, 1..2, [975, 511, 98, 173, 118, 118, 914, 138, 152, 799,
    467, 166, 706, 847, 763, 692, 95, 660, 416, 946, 547, 640, 495,
    88, 397, 878, 820, 407, 921, 477, 636, 934, 107, 62, 364, 473,
    590, 840, 765, 985, 428, 297, 943, 909, 106, 967, 331, 358, 15,
    267, 587, 145, 546, 320, 398, 272, 743, 243, 665, 144, 924, 395,
    921, 889, 606, 161, 152, 560, 49, 842, 432, 246, 527, 961, 499,
    84, 287, 851, 774, 803, 751, 664, 8, 315, 997, 459, 519, 32, 924,
    361, 485, 408, 549, 300, 35, 128, 743, 302, 961, 945, 689, 947,
    555, 240, 625, 222, 885, 206, 678, 849, 535, 593, 801, 699, 551,
    333, 458, 563, 437, 154, 464, 979, 423, 378, 687, 299, 45, 321,
    184, 367, 64, 654, 500, 365, 102, 958, 843, 165, 228, 981]);

n = 70;

